SPARKNaCl/why3-cvc5/sparknacl-sign.adb_873_32_range_check2_1.smt2
;; produced by cvc5.drv ;;
(set-logic ALL)
(set-info :smt-lib-version 2.6)
;;; generated by SMT-LIB2 driver
;;; SMT-LIB2 driver: bit-vectors, common part
;;; SMT-LIB2: integer arithmetic
;; "pow2"
(declare-fun pow2 (Int) Int)

(declare-const two_power_size_minus_one Int)

;; "two_power_size_minus_one_val"
(assert (= two_power_size_minus_one (pow2 (- 8 1))))

;; "min"
(define-fun min ((x Int) (y Int)) Int
  (ite (<= x y) x y))

;; "max"
(define-fun max ((x Int) (y Int)) Int
  (ite (<= x y) y x))

;; "Min_r"
(assert (forall ((x Int) (y Int)) (=> (<= y x) (= (min x y) y))))

;; "Max_l"
(assert (forall ((x Int) (y Int)) (=> (<= y x) (= (max x y) x))))

;; "Min_comm"
(assert (forall ((x Int) (y Int)) (= (min x y) (min y x))))

;; "Max_comm"
(assert (forall ((x Int) (y Int)) (= (max x y) (max y x))))

;; "Min_assoc"
(assert
  (forall ((x Int) (y Int) (z Int)) (= (min (min x y) z) (min x (min y z)))))

;; "Max_assoc"
(assert
  (forall ((x Int) (y Int) (z Int)) (= (max (max x y) z) (max x (max y z)))))

(declare-sort byte 0)

;; "to_rep"
(declare-fun to_rep (byte) (_ BitVec 8))

;; "of_rep"
(declare-fun of_rep ((_ BitVec 8)) byte)

;; "inversion_axiom"
(assert
  (forall ((x byte)) (! (= (of_rep (to_rep x)) x) :pattern ((to_rep x)) )))

;; "range_axiom"
(assert true)

;; "coerce_axiom"
(assert
  (forall ((x (_ BitVec 8)))
    (! (= (to_rep (of_rep x)) x) :pattern ((to_rep (of_rep x))) )))

(declare-sort map1 0)

;; "has_bounds"
(declare-fun has_bounds (map1
  Int
  Int) Bool)

;; "get"
(declare-fun get (map1
  Int) byte)

;; "set"
(declare-fun set (map1
  Int
  byte) map1)

;; "set_eq"
(assert
  (forall ((a map1) (i Int) (v byte))
    (! (= (get (set a i v) i) v) :pattern ((set a i v)) )))

;; "set_neq"
(assert
  (forall ((a map1) (i Int) (v byte))
    (! (forall ((j Int))
         (! (=> (not (= i j)) (= (get (set a i v) j) (get a j))) :pattern (
         (get
           a
           j)) :pattern ((get (set a i v) j)) )) :pattern ((set a i v)) )))

;; "set_has_bounds"
(assert
  (forall ((a map1) (i Int) (f Int) (l Int) (v byte))
    (! (=>
         (and (<= f i) (<= i l))
         (=> (has_bounds a f l) (has_bounds (set a i v) f l))) :pattern (
    (has_bounds
      (set a i v)
      f
      l)) )))

(declare-const sk_raw map1)

(declare-datatypes ((us_split_fields 0))
  (((us_split_fieldsqtmk (rec__ada___sparknacl__sign__signing_pk__f map1)))))

(declare-datatypes ((us_rep 0))
  (((us_repqtmk (us_split_fields1 us_split_fields)))))

;; "dynamic_invariant"
(define-fun dynamic_invariant ((temp___expr_531 us_rep) (temp___is_init_527 Bool) (temp___skip_constant_528 Bool) (temp___do_toplevel_529 Bool) (temp___do_typ_inv_530 Bool)) Bool
  (has_bounds
    (rec__ada___sparknacl__sign__signing_pk__f
      (us_split_fields1 temp___expr_531))
    0
    31))

(declare-datatypes ((us_split_fields2 0))
  (((us_split_fieldsqtmk1 (rec__ada___sparknacl__sign__signing_sk__f map1)))))

(declare-datatypes ((us_rep1 0))
  (((us_repqtmk1 (us_split_fields3 us_split_fields2)))))

;; "dynamic_invariant"
(define-fun dynamic_invariant1 ((temp___expr_581 us_rep1) (temp___is_init_577 Bool) (temp___skip_constant_578 Bool) (temp___do_toplevel_579 Bool) (temp___do_typ_inv_580 Bool)) Bool
  (has_bounds
    (rec__ada___sparknacl__sign__signing_sk__f
      (us_split_fields3 temp___expr_581))
    0
    63))

(declare-sort tinteger_32B 0)

;; "tinteger_32B'int"
(declare-fun tinteger_32Bqtint (tinteger_32B) Int)

;; "tinteger_32B'axiom"
(assert
  (forall ((i tinteger_32B))
    (and
      (<= (- 2147483648) (tinteger_32Bqtint i))
      (<= (tinteger_32Bqtint i) 2147483647))))

;; "in_range"
(define-fun in_range ((x Int)) Bool
  (and (<= (- 2147483648) x) (<= x 2147483647)))

;; "to_rep"
(define-fun to_rep1 ((x tinteger_32B)) Int
  (tinteger_32Bqtint x))

;; "of_rep"
(declare-fun of_rep1 (Int) tinteger_32B)

;; "inversion_axiom"
(assert
  (forall ((x tinteger_32B))
    (! (= (of_rep1 (to_rep1 x)) x) :pattern ((to_rep1 x)) )))

;; "range_axiom"
(assert
  (forall ((x tinteger_32B))
    (! (in_range (to_rep1 x)) :pattern ((to_rep1 x)) )))

;; "coerce_axiom"
(assert
  (forall ((x Int))
    (! (=> (in_range x) (= (to_rep1 (of_rep1 x)) x)) :pattern ((to_rep1
                                                                 (of_rep1 x))) )))

(declare-const two_power_size_minus_one1 Int)

;; "two_power_size_minus_one_val"
(assert (= two_power_size_minus_one1 (pow2 (- 16 1))))

(declare-sort gf16_normal_limb 0)

;; "to_rep"
(declare-fun to_rep2 (gf16_normal_limb) (_ BitVec 16))

;; "of_rep"
(declare-fun of_rep2 ((_ BitVec 16)) gf16_normal_limb)

;; "inversion_axiom"
(assert
  (forall ((x gf16_normal_limb))
    (! (= (of_rep2 (to_rep2 x)) x) :pattern ((to_rep2 x)) )))

;; "range_axiom"
(assert true)

;; "coerce_axiom"
(assert
  (forall ((x (_ BitVec 16)))
    (! (= (to_rep2 (of_rep2 x)) x) :pattern ((to_rep2 (of_rep2 x))) )))

;; Goal "def'vc"
;; File "sparknacl-sign.ads", line 14, characters 0-0
(assert
  (not
  (forall ((pk__split_fields map1) (sk__split_fields map1) (d map1) (lpk map1))
    (=>
      (has_bounds sk_raw 0 31)
      (=>
        (dynamic_invariant
          (us_repqtmk (us_split_fieldsqtmk pk__split_fields))
          false
          false
          true
          true)
        (=>
          (dynamic_invariant1
            (us_repqtmk1 (us_split_fieldsqtmk1 sk__split_fields))
            false
            false
            true
            true)
          (=>
            (has_bounds d 0 63)
            (=>
              (has_bounds lpk 0 31)
              (forall ((param__output map1))
                (=>
                  (has_bounds param__output 0 63)
                  (forall ((d1 map1))
                    (=>
                      (= d1 param__output)
                      (forall ((o (_ BitVec 8)))
                        (=>
                          (= (to_rep (get d1 0)) o)
                          (forall ((o1 byte))
                            (=>
                              (= (to_rep o1) (bvand o #xF8))
                              (forall ((d2 map1))
                                (=>
                                  (= d2 (set d1 0 o1))
                                  (forall ((o2 (_ BitVec 8)))
                                    (=>
                                      (= (to_rep (get d2 31)) o2)
                                      (forall ((o3 byte))
                                        (=>
                                          (= (to_rep o3) (bvor (bvand o2 #x7F) #x40))
                                          (forall ((d3 map1))
                                            (=>
                                              (= d3 (set d2 31 o3))
                                              (=> (<= 0 31) (<= 0 63))))))))))))))))))))))))))

(check-sat)
